p cnf 65 196
a 40 10 0
e 1 2 3 4 5 6 7 8 9 11 12 13 14 15 16 17 18 19 20 21 22 23 24 25 26 27 28 29 30 31 32 33 34 35 36 37 38 39 41 42 43 44 45 46 47 48 49 50 51 52 53 54 55 56 57 58 59 60 61 62 63 64 65 0
2 3 -4 0
-2 -3 -4 0
2 -3 4 0
-2 3 4 0
5 -1 0
5 -4 0
1 4 -5 0
8 6 0
8 -7 0
-6 7 -8 0
-9 1 0
-9 8 0
-1 -8 9 0
-11 -9 0
-11 -10 0
9 10 11 0
-8 12 -13 0
8 -12 -13 0
-8 -12 13 0
8 12 13 0
14 13 0
14 12 0
-13 -12 -14 0
-16 -2 0
-16 -15 0
2 15 16 0
-17 16 0
-17 -7 0
-16 7 17 0
-14 -17 -18 0
14 17 -18 0
-14 17 18 0
14 -17 18 0
-19 -11 0
-19 18 0
11 -18 19 0
20 -4 0
20 -12 0
4 12 -20 0
-21 -13 0
-21 20 0
13 -20 21 0
22 -21 0
22 -6 0
21 6 -22 0
-23 19 0
-23 22 0
-19 -22 23 0
25 -15 0
25 -24 0
15 24 -25 0
26 25 0
26 -3 0
-25 3 -26 0
-27 1 0
-27 -26 0
-1 26 27 0
-28 -23 0
-28 27 0
23 -27 28 0
29 -5 0
29 28 0
5 -28 -29 0
-30 4 0
-30 1 0
-4 -1 30 0
20 -1 -31 0
-20 1 -31 0
20 1 31 0
-20 -1 31 0
-32 31 0
-32 -3 0
-31 3 32 0
33 15 0
33 -12 0
-15 12 -33 0
34 -13 0
34 6 0
13 -6 -34 0
2 8 -35 0
-2 -8 -35 0
2 -8 35 0
-2 8 35 0
-36 -34 0
-36 35 0
34 -35 36 0
-37 -36 0
-37 16 0
36 -16 37 0
39 -37 0
39 -38 0
37 38 -39 0
40 39 0
40 -38 0
-39 38 -40 0
-41 -40 0
-41 -13 0
40 13 41 0
42 7 0
42 -7 0
6 24 -43 0
-6 -24 -43 0
6 -24 43 0
-6 24 43 0
-44 -43 0
-44 -9 0
43 9 44 0
-45 42 0
-45 -44 0
-42 44 45 0
-46 45 0
-46 31 0
-45 -31 46 0
-47 -46 0
-47 31 0
46 -31 47 0
-48 41 0
-48 47 0
-41 -47 48 0
-49 -33 0
-49 48 0
33 -48 49 0
-50 -32 0
-50 -49 0
32 49 50 0
25 16 -51 0
-25 -16 -51 0
25 -16 51 0
-25 16 51 0
-52 -51 0
-52 -7 0
51 7 52 0
-53 24 0
-53 24 0
-24 53 0
52 53 -54 0
-52 -53 -54 0
52 -53 54 0
-52 53 54 0
55 50 0
55 54 0
-50 -54 -55 0
-30 55 -56 0
30 -55 -56 0
-30 -55 56 0
30 55 56 0
-57 6 0
-57 -15 0
-6 15 57 0
-38 43 -58 0
38 -43 -58 0
-38 -43 58 0
38 43 58 0
-57 58 -59 0
57 -58 -59 0
-57 -58 59 0
57 58 59 0
60 -12 0
60 4 0
12 -4 -60 0
-61 -60 0
-61 -13 0
60 13 61 0
62 -8 0
62 -61 0
8 61 -62 0
-63 -59 0
-63 -62 0
59 62 63 0
-56 -63 -64 0
56 63 -64 0
-56 63 64 0
56 -63 64 0
-29 -64 -65 0
29 64 -65 0
-29 64 65 0
29 -64 65 0
-39 -50 -19 -29 42 -60 1 -26 0
-49 -45 47 0
-51 -45 -61 34 -64 58 53 -27 0
-41 -44 37 -34 0
50 -64 -40 -30 -63 22 12 0
-59 -49 -33 6 -38 35 64 -48 0
-40 39 4 0
3 2 -37 -53 36 40 12 58 0
-49 33 -60 -14 21 -25 64 0
-61 39 1 23 0
54 -31 -15 -10 -2 36 0
-63 -60 14 0
-18 53 35 -27 -10 0
13 -29 -27 -46 41 -52 -57 0
28 -16 -12 -38 0
-45 52 17 -64 0
26 31 49 62 -38 58 0
36 14 -25 -2 -6 -37 -43 0
65 0
